n_res = 4;
rc = [ 31, 27, 27, 24 ];
n_tasks = 30;
d = [ 3, 8, 7, 6, 5, 3, 2, 5, 2, 6, 2, 1, 7, 5, 10, 2, 8, 4, 6, 1, 4, 1, 6, 3, 10, 6, 2, 10, 5, 10 ];
rr = [| 5, 0, 1, 7, 10, 0, 0, 0, 0, 1, 10, 0, 1, 8, 10, 3, 8, 5, 3, 1, 5, 3, 5, 0, 2, 10, 7, 0, 4, 0
      | 0, 6, 4, 6, 4, 0, 4, 4, 3, 10, 4, 4, 5, 6, 2, 2, 4, 0, 1, 9, 10, 2, 10, 3, 0, 5, 3, 6, 2, 8
      | 9, 0, 7, 6, 0, 1, 0, 4, 10, 10, 3, 3, 4, 4, 1, 5, 9, 10, 10, 0, 0, 0, 0, 3, 8, 9, 10, 1, 0, 8
      | 10, 0, 10, 5, 0, 0, 7, 6, 3, 2, 7, 1, 0, 9, 5, 0, 3, 10, 5, 8, 2, 0, 0, 6, 10, 2, 6, 0, 5, 3 |];
suc = [ { 2 }, 
        { 3 }, 
        { 4 }, 
        { 5 }, 
        { 6 }, 
        { 7 }, 
        { 8 }, 
        { 9 }, 
        { 10 }, 
        { 11 }, 
        { 12 }, 
        { 13 }, 
        { 14 }, 
        { 15 }, 
        { 16 }, 
        { 17 }, 
        { 18 }, 
        { 19 }, 
        { 20 }, 
        { 21 }, 
        { 22 }, 
        { 23 }, 
        { 24 }, 
        { 25 }, 
        { 26 }, 
        { 27 }, 
        { 28 }, 
        { 29 }, 
        { 30 }, 
        {  }]; 
